c read Graph
c width = 147
c time = 91 ms
c width = 13
c time = 168 ms
c width = 12
c time = 255 ms
c width = 11
c time = 1053 ms
c width = 11
c time = 4979 ms
s td 147 12 160
b 1 1 2 17
b 2 2 3 17 18
b 3 14 15 31 32
b 4 3 17 18 33
b 5 14 31 32 48
b 6 113 129 130 146
b 7 128 143 144 159
b 8 113 130 146 147
b 9 128 143 158 159
b 10 3 4 5 20
b 11 3 5 19 20 34 49
b 12 5 19 20 34 36 49 51
b 13 5 20 34 36 49 51 66
b 14 34 49 50 51 66
b 15 5 20 36 49 51 66 81
b 16 49 65 66 81
b 17 5 20 22 36 37 51 66 81
b 18 5 22 36 37 51 54 66 68 69 81
b 19 5 22 37 51 54 66 68 69 81 83
b 20 5 22 37 54 66 68 69 81 83 84
b 21 5 22 37 54 66 69 81 83 84 98
b 22 5 22 37 54 69 81 83 84 98 99
b 23 5 22 37 54 69 81 84 98 99 116 133 150
b 24 5 22 37 54 69 84 99 101 116 133 150
b 25 84 99 100 101 116
b 26 5 22 37 54 69 84 86 101 116 133 150
b 27 5 22 37 54 69 86 101 116 118 133 150
b 28 101 116 117 118 133
b 29 5 22 37 54 69 86 101 118 133 135 150
b 30 5 22 37 39 54 69 86 101 118 135 150
b 31 22 37 38 39 54
b 32 5 22 39 54 69 71 86 101 118 135 150
b 33 5 22 39 54 56 71 86 101 118 135 150
b 34 5 22 39 56 71 86 101 103 118 135 150
b 35 5 22 39 56 71 86 88 103 118 135 150
b 36 5 9 22 24 39 56 71 88 103 118 135 150
b 37 5 7 9 22 24 39
b 38 5 6 7 22
b 39 7 8 9 24
b 40 7 22 23 24 39
b 41 9 24 39 56 71 88 103 118 120 135 150
b 42 103 118 119 120 135
b 43 9 24 39 56 71 88 103 105 120 135 150
b 44 9 24 39 56 71 73 88 105 120 135 150
b 45 56 71 72 73 88
b 46 88 103 104 105 120
b 47 71 86 87 88 103
b 48 86 101 102 103 118
b 49 39 54 55 56 71
b 50 54 69 70 71 86
b 51 118 133 134 135 150
b 52 69 84 85 86 101
b 53 81 98 99 116 133 148 150
b 54 133 148 149 150
b 55 81 98 99 116 131 133 148
b 56 81 98 99 114 116 131 148
b 57 81 98 113 114 131 148
b 58 81 97 98 113
b 59 113 114 131 147 148
b 60 113 114 130 131 147
b 61 99 114 115 116 131
b 62 116 131 132 133 148
b 63 66 81 82 83 98
b 64 51 66 67 68 83
b 65 36 37 51 53 54 68 69
b 66 36 51 52 53 68
b 67 5 20 21 22 37
b 68 19 34 35 36 51
b 69 3 19 33 34 49
b 70 3 18 19 33 34
b 71 60 75 76 77 92
b 72 122 137 138 139 154
b 73 135 150 151 152
b 74 9 24 25 26 41
b 75 26 41 42 43 58
b 76 41 56 57 58 73
b 77 58 73 74 75 90
b 78 90 105 106 107 122
b 79 105 120 121 122 137
b 80 120 135 136 137 152
b 81 11 13 28 45 62 79 96
b 82 120 135 137 150 152 154
b 83 9 24 39 41 56 73 88 105 120 135 150
b 84 62 77 79 92 94 96 107 122 139 154
b 85 62 77 79 92 96 107 122 137 139 154
b 86 9 24 26 41 56 73 88 105 120 135 150
b 87 9 26 41 56 58 73 88 105 120 135 150
b 88 9 26 41 58 73 88 90 105 120 135 150
b 89 9 26 41 43 58 73 90 105 120 135 150
b 90 9 26 43 58 73 75 90 105 120 135 150
b 91 9 11 26 43 58 75 90 105 120 135 150
b 92 11 26 28 43 58 75 90 105 120 135 150
b 93 11 28 43 58 60 75 90 105 120 135 150
b 94 11 28 43 45 60 75 90 105 120 135 150
b 95 11 28 45 60 75 90 105 120 135 137 150 154
b 96 11 28 45 60 75 90 105 120 122 137 154
b 97 11 28 45 60 75 90 105 107 122 137 154
b 98 11 28 45 60 75 90 92 107 122 137 154
b 99 11 28 45 60 75 77 92 107 122 137 154
b 100 11 28 45 60 62 77 92 107 122 137 154
b 101 11 28 45 62 77 79 92 96 107 122 137 154
b 102 62 77 79 92 96 107 122 137 154
b 103 75 90 91 92 107
b 104 73 88 89 90 105
b 105 77 79 92 94 96 107 122 124 139 154
b 106 107 122 123 124 139
b 107 77 79 92 94 96 107 109 124 139 154
b 108 92 107 108 109 124
b 109 77 92 93 94 109
b 110 79 94 96 109 124 139 154 156
b 111 139 154 155 156
b 112 79 94 96 109 124 139 141 156
b 113 79 94 96 109 111 124 141 156
b 114 79 94 95 96 111
b 115 94 96 109 111 124 126 141 156
b 116 94 109 110 111 126
b 117 96 111 126 141 156 158
b 118 96 111 126 128 141 158
b 119 96 111 112 128
b 120 111 126 128 141 142 158
b 121 111 126 127 128 142 158
b 122 127 128 142 143 158
b 123 141 156 157 158
b 124 109 124 125 126 141
b 125 124 139 140 141 156
b 126 137 152 153 154
b 127 24 39 40 41 56
b 128 43 58 59 60 75
b 129 9 10 11 26
b 130 11 12 13 28
b 131 11 26 27 28 43
b 132 62 77 78 79 94
b 133 13 28 45 62 64 79 96
b 134 64 79 80 96
b 135 13 28 45 47 62 64 79
b 136 47 62 63 64 79
b 137 13 28 30 45 47 62 64
b 138 30 45 46 47 62
b 139 13 30 47 48 64
b 140 13 14 30 47 48
b 141 14 30 31 47 48
b 142 13 28 29 30 45
b 143 45 60 61 62 77
b 144 28 43 44 45 60
b 145 144 159 160
b 146 129 145 146
b 147 15 16 32
1 2
2 4
3 147
3 5
4 70
5 141
6 146
6 8
7 145
7 9
8 60
9 122
10 11
11 69
11 12
12 68
12 13
13 15
13 14
15 17
15 16
17 67
17 18
18 65
18 19
19 64
19 20
20 21
21 63
21 22
22 23
23 53
23 24
24 25
24 26
26 52
26 27
27 28
27 29
29 51
29 30
30 32
30 31
32 50
32 33
33 49
33 34
34 48
34 35
35 47
35 36
36 41
36 37
37 38
37 39
37 40
41 43
41 42
43 46
43 44
44 83
44 45
53 55
53 54
55 56
55 62
56 61
56 57
57 58
57 59
59 60
65 66
69 70
71 99
72 85
73 82
74 86
75 89
76 87
77 90
78 97
79 96
80 82
81 130
81 133
81 101
82 126
82 95
83 127
83 86
84 105
84 132
84 85
85 102
86 87
87 88
88 104
88 89
89 90
90 91
91 129
91 92
92 131
92 93
93 128
93 94
94 144
94 95
95 96
96 97
97 98
98 103
98 99
99 100
100 143
100 101
101 102
105 106
105 107
107 108
107 109
107 110
110 112
110 111
112 125
112 113
113 114
113 115
115 116
115 124
115 117
117 123
117 118
118 119
118 120
120 121
121 122
133 134
133 135
135 136
135 137
137 139
137 142
137 138
139 140
140 141
